p tw 40 242
e 0 7
e 0 12
e 0 14
e 0 17
e 0 18
e 0 19
e 0 22
e 0 24
e 0 26
e 0 27
e 0 29
e 0 30
e 0 33
e 0 37
e 1 4
e 1 6
e 1 7
e 1 8
e 1 11
e 1 20
e 1 22
e 1 25
e 1 29
e 1 30
e 1 31
e 1 33
e 2 4
e 2 8
e 2 10
e 2 19
e 2 20
e 2 21
e 2 24
e 2 25
e 2 29
e 2 34
e 2 36
e 2 39
e 3 8
e 3 10
e 3 12
e 3 21
e 3 23
e 3 30
e 3 31
e 4 7
e 4 11
e 4 15
e 4 17
e 4 35
e 5 8
e 5 17
e 5 18
e 5 21
e 5 24
e 5 26
e 5 27
e 5 28
e 5 30
e 5 31
e 5 32
e 5 37
e 5 39
e 6 8
e 6 10
e 6 13
e 6 15
e 6 25
e 6 33
e 6 34
e 6 37
e 7 10
e 7 11
e 7 17
e 7 24
e 7 26
e 7 29
e 7 32
e 7 34
e 7 37
e 7 38
e 7 39
e 8 10
e 8 16
e 8 21
e 8 27
e 8 28
e 8 33
e 9 14
e 9 15
e 9 17
e 9 21
e 9 24
e 9 29
e 9 32
e 9 33
e 9 37
e 10 13
e 10 15
e 10 19
e 10 20
e 10 22
e 10 25
e 10 27
e 10 28
e 10 30
e 10 31
e 10 35
e 11 14
e 11 16
e 11 22
e 11 24
e 11 27
e 11 28
e 11 31
e 11 34
e 11 36
e 11 37
e 11 39
e 12 17
e 12 19
e 12 20
e 12 23
e 12 24
e 12 28
e 12 31
e 12 36
e 13 21
e 13 22
e 13 23
e 13 24
e 13 28
e 13 34
e 13 35
e 13 36
e 14 15
e 14 16
e 14 17
e 14 18
e 14 19
e 14 20
e 14 22
e 14 30
e 14 32
e 14 35
e 14 36
e 14 37
e 14 38
e 14 39
e 15 21
e 15 24
e 15 25
e 15 31
e 15 32
e 15 35
e 16 17
e 16 18
e 16 22
e 16 23
e 16 24
e 16 26
e 16 27
e 16 30
e 16 31
e 16 33
e 16 37
e 16 39
e 17 22
e 17 23
e 17 34
e 17 35
e 17 37
e 18 20
e 18 21
e 18 22
e 18 23
e 18 26
e 18 27
e 18 29
e 18 30
e 18 31
e 18 33
e 19 28
e 19 31
e 19 32
e 19 33
e 19 34
e 19 36
e 19 37
e 20 21
e 20 22
e 20 23
e 20 28
e 20 32
e 20 36
e 20 38
e 21 25
e 21 36
e 21 39
e 22 24
e 22 29
e 22 30
e 22 31
e 22 35
e 22 37
e 23 27
e 23 30
e 23 31
e 23 32
e 23 35
e 24 28
e 24 31
e 24 34
e 25 37
e 25 38
e 25 39
e 26 33
e 26 35
e 27 32
e 27 35
e 27 39
e 28 30
e 28 36
e 29 32
e 29 34
e 29 37
e 30 31
e 30 32
e 31 34
e 31 37
e 31 38
e 31 39
e 32 35
e 32 36
e 33 35
e 34 38
e 35 38
e 35 39
e 36 37
e 36 38
e 36 39
e 37 39
